NAME : OMNETRUN
COMMENT : 524.61
TYPE : CVRP
DIMENSION : 21
EDGE_WEIGHT_TYPE : EUC_2D
CAPACITY : 21
NODE_COORD_SECTION
1 0.107093 -0.77924
2 175.444 -305.204
3 110.402 -979.24
4 66.9577 -1356.13
5 53.8045 -2550.71
6 34.1134 -3139.19
7 329.077 -2158.74
8 380.509 -2808.95
9 414.134 -3648.3
10 472.295 -4398.26
11 315.32 -4798.05
12 255.095 -5567.84
13 467.91 -5848.75
14 663.552 -388.915
15 623.791 -976.526
16 547.517 -1422.12
17 698.557 -2585.24
18 680.986 -3015.99
19 609.743 -4070.41
20 618.269 -5066.58
21 971.697 -864.678
DEMAND_SECTION
1 0
2 1
3 1
4 1
5 1
6 1
7 1
8 1
9 1
10 1
11 1
12 1
13 1
14 1
15 1
16 1
17 1
18 1
19 1
20 1
21 1
DEPOT_SECTION
1
-1
EOF
